InboundTrucks  = 20;
OutboundTrucks = 13;
InboundDoors   = 2;
OutboundDoors  = 1;
ReleaseTime    = [3,17,5,49,26,17,6,53,57,55,2,24,34,35,21,21,54,3,10,8];
UnloadTime     = [6,9,6,4,3,1,7,2,10,7,2,1,6,8,2,1,2,3,3,1];
LoadTime       = [5,7,10,8,5,8,1,5,6,9,8,4,10];
TransferTime   = [| 0,0,0,5,0,0,0,0,0,0,0,0,0 | 0,0,4,0,3,0,0,0,0,0,5,3,3 | 0,0,0,0,3,0,0,0,4,0,5,0,0 | 2,0,3,0,0,0,5,3,0,1,0,0,0 | 0,3,0,0,0,0,0,0,0,0,0,0,0 | 0,1,0,0,0,0,0,0,0,0,0,0,0 | 0,2,0,0,2,0,4,0,0,0,0,0,0 | 5,0,0,0,0,3,5,0,0,0,3,0,5 | 2,0,0,0,3,0,3,5,0,0,0,0,0 | 0,0,0,0,0,0,0,0,5,0,0,5,0 | 0,0,1,0,0,0,0,0,4,0,0,0,1 | 0,0,0,0,0,0,3,3,0,0,4,4,0 | 0,0,0,4,0,0,0,4,0,0,0,0,1 | 0,0,5,5,3,0,1,0,0,0,0,0,0 | 0,0,0,0,3,0,0,0,1,0,1,0,5 | 0,0,0,0,0,4,0,0,0,0,0,0,0 | 0,0,4,0,0,0,0,2,0,0,2,1,3 | 0,2,0,0,0,0,1,0,0,0,0,0,0 | 0,0,0,0,0,1,0,0,2,0,0,1,0 | 0,0,5,0,0,0,5,0,0,0,0,2,0 |];
